n = 100;
C = 25015;
w = [46,374,242,633,830,673,914,295,278,391,393,397,784,982,503,926,721,700,288,560,297,211,575,23,572,94,428,816,672,371,251,520,991,777,479,470,631,460,638,711,25,959,815,489,855,17,394,185,825,684,471,265,66,857,833,732,142,152,876,20,366,47,989,774,824,136,1,300,913,64,145,924,108,565,516,102,440,200,549,844,780,899,590,261,662,445,910,531,885,67,783,534,459,313,835,831,311,338,32,178];
p = [46,374,242,633,830,673,914,295,278,391,393,397,784,982,503,926,721,700,288,560,297,211,575,23,572,94,428,816,672,371,251,520,991,777,479,470,631,460,638,711,25,959,815,489,855,17,394,185,825,684,471,265,66,857,833,732,142,152,876,20,366,47,989,774,824,136,1,300,913,64,145,924,108,565,516,102,440,200,549,844,780,899,590,261,662,445,910,531,885,67,783,534,459,313,835,831,311,338,32,178];
